results/x-long/X-n162-k11.vrp_seed-49.out
14164	1389
