results/x-long/X-n162-k11.vrp_seed-49.vrp.sol
Route #1: 155 92 125 93 132 87 4 101 151 146 39 137 108 158 91 136
Route #2: 52 116 102 96 142 43 123 56 66 94 36 35 99 130 86 53
Route #3: 150 90 145 68 58 38 73 11 48 26 28 152 45 50
Route #4: 127 17 149 89 14 1 55 60 21 9 27 117 97 77 161
Route #5: 15 139 126 138 133 107 122 84 160 85 147 159 121 144
Route #6: 54 8 61 46 42 33 3 64 18 19 44 75 7 34 22 78
Route #7: 79 20 67 62 114 95 129 88 106 100 31 140 154 111 80
Route #8: 74 81 120 5 16 32 57 131 37 71 13 6 49 24 23
Route #9: 76 41 69 65 51 12 70 113 63 104 83 98 47 25
Route #10: 143 153 110 128 124 134 148 109 2 82 118 30 157 112 40 103
Route #11: 72 29 10 105 119 135 141 115 156 59
Cost 14164.000000